c "647972.clq"
p edge 247 3696
e 1 17
e 1 18
e 1 19
e 1 20
e 1 21
e 1 23
e 1 24
e 1 25
e 1 30
e 1 34
e 1 37
e 1 49
e 1 80
e 1 89
e 1 91
e 1 109
e 1 129
e 1 134
e 1 137
e 1 139
e 1 162
e 1 174
e 1 182
e 1 188
e 1 196
e 1 202
e 1 206
e 1 208
e 1 230
e 1 233
e 2 17
e 2 18
e 2 20
e 2 21
e 2 22
e 2 23
e 2 24
e 2 26
e 2 27
e 2 28
e 2 29
e 2 31
e 2 32
e 2 33
e 2 35
e 2 36
e 2 37
e 2 42
e 2 43
e 2 62
e 2 65
e 2 67
e 2 75
e 2 91
e 2 96
e 2 104
e 2 110
e 2 114
e 2 129
e 2 130
e 2 134
e 2 138
e 2 152
e 2 154
e 2 170
e 2 181
e 2 182
e 2 195
e 2 205
e 2 222
e 2 243
e 3 17
e 3 18
e 3 19
e 3 21
e 3 22
e 3 27
e 3 29
e 3 30
e 3 31
e 3 32
e 3 33
e 3 36
e 3 37
e 3 39
e 3 40
e 3 44
e 3 51
e 3 53
e 3 54
e 3 72
e 3 73
e 3 77
e 3 88
e 3 91
e 3 95
e 3 97
e 3 112
e 3 119
e 3 127
e 3 145
e 3 147
e 3 149
e 3 150
e 3 156
e 3 168
e 3 171
e 3 178
e 3 183
e 3 220
e 3 242
e 4 17
e 4 18
e 4 19
e 4 20
e 4 22
e 4 23
e 4 26
e 4 28
e 4 31
e 4 34
e 4 35
e 4 36
e 4 39
e 4 41
e 4 44
e 4 49
e 4 50
e 4 52
e 4 53
e 4 56
e 4 70
e 4 80
e 4 86
e 4 87
e 4 88
e 4 92
e 4 94
e 4 103
e 4 104
e 4 105
e 4 107
e 4 113
e 4 133
e 4 137
e 4 145
e 4 162
e 4 163
e 4 170
e 4 177
e 4 185
e 4 201
e 4 213
e 4 218
e 4 220
e 4 226
e 4 230
e 4 232
e 5 17
e 5 18
e 5 19
e 5 20
e 5 21
e 5 22
e 5 25
e 5 32
e 5 37
e 5 43
e 5 44
e 5 45
e 5 46
e 5 47
e 5 51
e 5 58
e 5 59
e 5 63
e 5 66
e 5 67
e 5 68
e 5 75
e 5 76
e 5 81
e 5 82
e 5 84
e 5 85
e 5 87
e 5 91
e 5 93
e 5 106
e 5 109
e 5 114
e 5 116
e 5 136
e 5 146
e 5 173
e 5 185
e 5 193
e 5 201
e 5 202
e 5 207
e 5 226
e 5 227
e 5 234
e 6 17
e 6 18
e 6 19
e 6 21
e 6 24
e 6 27
e 6 32
e 6 37
e 6 38
e 6 45
e 6 50
e 6 51
e 6 55
e 6 57
e 6 59
e 6 65
e 6 68
e 6 69
e 6 74
e 6 76
e 6 93
e 6 102
e 6 108
e 6 127
e 6 143
e 6 154
e 6 162
e 6 189
e 6 191
e 6 234
e 7 17
e 7 18
e 7 19
e 7 20
e 7 21
e 7 22
e 7 23
e 7 25
e 7 26
e 7 27
e 7 29
e 7 31
e 7 32
e 7 34
e 7 35
e 7 37
e 7 38
e 7 40
e 7 41
e 7 44
e 7 45
e 7 47
e 7 48
e 7 49
e 7 50
e 7 54
e 7 55
e 7 58
e 7 59
e 7 60
e 7 61
e 7 63
e 7 64
e 7 71
e 7 75
e 7 79
e 7 83
e 7 87
e 7 93
e 7 95
e 7 97
e 7 98
e 7 102
e 7 104
e 7 105
e 7 119
e 7 121
e 7 124
e 7 130
e 7 132
e 7 147
e 7 148
e 7 149
e 7 150
e 7 151
e 7 153
e 7 158
e 7 163
e 7 165
e 7 169
e 7 178
e 7 179
e 7 187
e 7 201
e 7 218
e 7 219
e 7 220
e 7 222
e 7 229
e 7 240
e 8 17
e 8 18
e 8 19
e 8 20
e 8 21
e 8 22
e 8 23
e 8 25
e 8 26
e 8 27
e 8 28
e 8 29
e 8 41
e 8 53
e 8 66
e 8 68
e 8 86
e 8 87
e 8 97
e 8 102
e 8 114
e 8 125
e 8 131
e 8 133
e 8 141
e 8 149
e 8 176
e 8 178
e 8 195
e 8 206
e 8 219
e 8 222
e 9 17
e 9 18
e 9 19
e 9 20
e 9 22
e 9 23
e 9 24
e 9 25
e 9 26
e 9 27
e 9 28
e 9 31
e 9 32
e 9 33
e 9 39
e 9 40
e 9 41
e 9 43
e 9 44
e 9 45
e 9 50
e 9 51
e 9 58
e 9 59
e 9 60
e 9 62
e 9 65
e 9 67
e 9 72
e 9 73
e 9 85
e 9 87
e 9 88
e 9 90
e 9 93
e 9 94
e 9 99
e 9 101
e 9 106
e 9 112
e 9 113
e 9 124
e 9 127
e 9 130
e 9 136
e 9 147
e 9 153
e 9 163
e 9 165
e 9 177
e 9 185
e 9 193
e 9 194
e 9 196
e 9 208
e 9 215
e 9 245
e 10 17
e 10 18
e 10 19
e 10 20
e 10 21
e 10 23
e 10 28
e 10 40
e 10 41
e 10 47
e 10 62
e 10 63
e 10 71
e 10 74
e 10 77
e 10 83
e 10 88
e 10 92
e 10 100
e 10 104
e 10 111
e 10 112
e 10 113
e 10 129
e 10 134
e 10 156
e 10 191
e 10 216
e 10 230
e 11 17
e 11 18
e 11 19
e 11 20
e 11 21
e 11 24
e 11 25
e 11 26
e 11 28
e 11 33
e 11 41
e 11 62
e 11 68
e 11 70
e 11 107
e 11 138
e 11 143
e 11 153
e 11 159
e 11 168
e 11 217
e 11 246
e 12 17
e 12 18
e 12 19
e 12 20
e 12 21
e 12 22
e 12 23
e 12 24
e 12 25
e 12 26
e 12 27
e 12 30
e 12 40
e 12 46
e 12 49
e 12 52
e 12 56
e 12 57
e 12 63
e 12 71
e 12 107
e 12 118
e 12 121
e 12 122
e 12 126
e 12 127
e 12 128
e 12 136
e 12 139
e 12 141
e 12 151
e 12 177
e 12 188
e 12 197
e 12 198
e 12 203
e 12 213
e 12 222
e 12 238
e 13 17
e 13 18
e 13 20
e 13 24
e 13 25
e 13 27
e 13 30
e 13 43
e 13 44
e 13 52
e 13 55
e 13 66
e 13 78
e 13 84
e 13 92
e 13 98
e 13 103
e 13 106
e 13 108
e 13 110
e 13 118
e 13 121
e 13 147
e 13 151
e 13 152
e 13 153
e 13 160
e 13 164
e 13 173
e 13 188
e 13 242
e 13 243
e 14 17
e 14 18
e 14 19
e 14 20
e 14 22
e 14 23
e 14 26
e 14 29
e 14 30
e 14 34
e 14 44
e 14 49
e 14 53
e 14 61
e 14 80
e 14 83
e 14 86
e 14 91
e 14 93
e 14 94
e 14 102
e 14 107
e 14 117
e 14 118
e 14 124
e 14 143
e 14 174
e 14 185
e 14 187
e 14 188
e 14 190
e 14 201
e 14 206
e 14 207
e 14 208
e 14 212
e 14 221
e 14 236
e 14 238
e 14 242
e 15 17
e 15 19
e 15 21
e 15 22
e 15 24
e 15 25
e 15 26
e 15 27
e 15 29
e 15 31
e 15 33
e 15 35
e 15 38
e 15 42
e 15 59
e 15 60
e 15 61
e 15 72
e 15 76
e 15 80
e 15 84
e 15 86
e 15 98
e 15 100
e 15 105
e 15 111
e 15 116
e 15 123
e 15 131
e 15 146
e 15 149
e 15 160
e 15 169
e 15 173
e 15 190
e 15 191
e 16 17
e 16 18
e 16 19
e 16 20
e 16 21
e 16 22
e 16 23
e 16 24
e 16 26
e 16 28
e 16 29
e 16 30
e 16 33
e 16 36
e 16 38
e 16 39
e 16 40
e 16 46
e 16 48
e 16 49
e 16 52
e 16 53
e 16 57
e 16 59
e 16 60
e 16 66
e 16 79
e 16 80
e 16 109
e 16 110
e 16 112
e 16 114
e 16 122
e 16 129
e 16 144
e 16 149
e 16 151
e 16 170
e 16 176
e 16 185
e 16 188
e 16 203
e 16 217
e 16 221
e 16 225
e 16 239
e 17 18
e 17 19
e 17 20
e 17 21
e 17 22
e 17 23
e 17 24
e 17 25
e 17 27
e 17 28
e 17 29
e 17 30
e 17 32
e 17 33
e 17 34
e 17 36
e 17 38
e 17 41
e 17 43
e 17 44
e 17 46
e 17 48
e 17 50
e 17 51
e 17 52
e 17 54
e 17 55
e 17 56
e 17 58
e 17 60
e 17 62
e 17 64
e 17 65
e 17 67
e 17 68
e 17 73
e 17 78
e 17 80
e 17 82
e 17 84
e 17 85
e 17 88
e 17 93
e 17 95
e 17 96
e 17 99
e 17 104
e 17 105
e 17 109
e 17 114
e 17 117
e 17 119
e 17 120
e 17 122
e 17 123
e 17 128
e 17 130
e 17 132
e 17 135
e 17 137
e 17 138
e 17 140
e 17 142
e 17 144
e 17 146
e 17 148
e 17 149
e 17 154
e 17 157
e 17 160
e 17 162
e 17 166
e 17 181
e 17 192
e 17 196
e 17 199
e 17 200
e 17 201
e 17 208
e 17 210
e 17 212
e 17 216
e 17 219
e 17 222
e 17 227
e 17 228
e 17 234
e 17 238
e 18 19
e 18 20
e 18 21
e 18 22
e 18 23
e 18 24
e 18 25
e 18 27
e 18 30
e 18 31
e 18 34
e 18 35
e 18 36
e 18 37
e 18 38
e 18 39
e 18 40
e 18 42
e 18 43
e 18 47
e 18 50
e 18 51
e 18 53
e 18 57
e 18 60
e 18 62
e 18 64
e 18 65
e 18 66
e 18 67
e 18 68
e 18 71
e 18 72
e 18 73
e 18 74
e 18 75
e 18 78
e 18 84
e 18 85
e 18 86
e 18 89
e 18 90
e 18 94
e 18 95
e 18 97
e 18 100
e 18 103
e 18 113
e 18 116
e 18 120
e 18 121
e 18 124
e 18 127
e 18 142
e 18 143
e 18 145
e 18 146
e 18 152
e 18 154
e 18 157
e 18 161
e 18 162
e 18 166
e 18 168
e 18 169
e 18 170
e 18 174
e 18 182
e 18 184
e 18 188
e 18 196
e 18 199
e 18 203
e 18 208
e 18 226
e 18 231
e 18 237
e 18 241
e 18 242
e 18 243
e 18 244
e 18 245
e 18 246
e 19 20
e 19 21
e 19 22
e 19 23
e 19 24
e 19 25
e 19 26
e 19 27
e 19 28
e 19 29
e 19 30
e 19 31
e 19 33
e 19 34
e 19 35
e 19 36
e 19 37
e 19 38
e 19 39
e 19 42
e 19 46
e 19 47
e 19 49
e 19 52
e 19 53
e 19 56
e 19 60
e 19 63
e 19 64
e 19 69
e 19 72
e 19 74
e 19 75
e 19 78
e 19 82
e 19 85
e 19 86
e 19 89
e 19 90
e 19 94
e 19 109
e 19 111
e 19 112
e 19 113
e 19 117
e 19 119
e 19 124
e 19 131
e 19 132
e 19 135
e 19 136
e 19 142
e 19 145
e 19 150
e 19 153
e 19 163
e 19 191
e 19 195
e 19 197
e 19 202
e 19 206
e 19 214
e 19 216
e 19 217
e 19 221
e 19 224
e 19 228
e 19 229
e 19 234
e 19 239
e 19 240
e 19 243
e 19 245
e 20 21
e 20 22
e 20 23
e 20 24
e 20 25
e 20 26
e 20 27
e 20 28
e 20 29
e 20 30
e 20 31
e 20 32
e 20 33
e 20 34
e 20 35
e 20 36
e 20 38
e 20 39
e 20 40
e 20 42
e 20 43
e 20 44
e 20 45
e 20 47
e 20 48
e 20 49
e 20 51
e 20 54
e 20 57
e 20 59
e 20 62
e 20 64
e 20 67
e 20 69
e 20 71
e 20 74
e 20 76
e 20 77
e 20 79
e 20 80
e 20 82
e 20 84
e 20 88
e 20 92
e 20 96
e 20 99
e 20 100
e 20 101
e 20 103
e 20 106
e 20 109
e 20 110
e 20 121
e 20 125
e 20 129
e 20 133
e 20 134
e 20 135
e 20 140
e 20 142
e 20 147
e 20 150
e 20 152
e 20 154
e 20 156
e 20 157
e 20 162
e 20 164
e 20 166
e 20 172
e 20 177
e 20 205
e 20 210
e 20 214
e 20 218
e 20 219
e 20 220
e 20 225
e 20 244
e 20 246
e 21 22
e 21 23
e 21 24
e 21 25
e 21 26
e 21 27
e 21 28
e 21 29
e 21 30
e 21 31
e 21 32
e 21 33
e 21 34
e 21 36
e 21 37
e 21 38
e 21 39
e 21 40
e 21 46
e 21 47
e 21 48
e 21 52
e 21 53
e 21 54
e 21 57
e 21 58
e 21 61
e 21 62
e 21 65
e 21 69
e 21 70
e 21 72
e 21 73
e 21 75
e 21 78
e 21 79
e 21 80
e 21 83
e 21 85
e 21 86
e 21 88
e 21 89
e 21 90
e 21 91
e 21 92
e 21 95
e 21 101
e 21 102
e 21 104
e 21 105
e 21 110
e 21 111
e 21 113
e 21 115
e 21 118
e 21 122
e 21 123
e 21 126
e 21 142
e 21 148
e 21 150
e 21 153
e 21 159
e 21 160
e 21 167
e 21 174
e 21 184
e 21 192
e 21 201
e 21 208
e 21 209
e 21 210
e 21 219
e 21 222
e 21 223
e 21 230
e 21 235
e 21 242
e 21 247
e 22 23
e 22 24
e 22 25
e 22 26
e 22 28
e 22 29
e 22 30
e 22 31
e 22 32
e 22 34
e 22 35
e 22 38
e 22 39
e 22 44
e 22 45
e 22 47
e 22 48
e 22 53
e 22 54
e 22 56
e 22 58
e 22 59
e 22 61
e 22 64
e 22 68
e 22 69
e 22 70
e 22 76
e 22 82
e 22 83
e 22 84
e 22 87
e 22 89
e 22 90
e 22 93
e 22 96
e 22 98
e 22 99
e 22 101
e 22 102
e 22 104
e 22 105
e 22 108
e 22 110
e 22 111
e 22 128
e 22 137
e 22 138
e 22 140
e 22 144
e 22 153
e 22 157
e 22 158
e 22 161
e 22 163
e 22 164
e 22 165
e 22 167
e 22 174
e 22 176
e 22 177
e 22 179
e 22 180
e 22 181
e 22 185
e 22 186
e 22 187
e 22 193
e 22 200
e 22 209
e 22 225
e 22 226
e 22 229
e 22 230
e 22 233
e 23 24
e 23 26
e 23 27
e 23 28
e 23 29
e 23 30
e 23 31
e 23 33
e 23 35
e 23 38
e 23 39
e 23 40
e 23 42
e 23 43
e 23 44
e 23 47
e 23 48
e 23 53
e 23 54
e 23 55
e 23 56
e 23 57
e 23 58
e 23 59
e 23 61
e 23 66
e 23 67
e 23 69
e 23 71
e 23 72
e 23 76
e 23 77
e 23 78
e 23 81
e 23 82
e 23 83
e 23 92
e 23 93
e 23 95
e 23 97
e 23 98
e 23 103
e 23 104
e 23 107
e 23 108
e 23 109
e 23 113
e 23 118
e 23 121
e 23 122
e 23 128
e 23 131
e 23 141
e 23 156
e 23 163
e 23 168
e 23 176
e 23 181
e 23 183
e 23 198
e 23 199
e 23 207
e 23 210
e 23 212
e 23 217
e 23 219
e 23 221
e 23 222
e 23 223
e 23 224
e 23 226
e 23 227
e 23 232
e 23 233
e 24 25
e 24 26
e 24 28
e 24 30
e 24 31
e 24 32
e 24 33
e 24 35
e 24 37
e 24 41
e 24 42
e 24 45
e 24 46
e 24 47
e 24 48
e 24 49
e 24 50
e 24 52
e 24 54
e 24 55
e 24 57
e 24 61
e 24 63
e 24 69
e 24 70
e 24 71
e 24 73
e 24 74
e 24 79
e 24 80
e 24 81
e 24 89
e 24 93
e 24 98
e 24 99
e 24 100
e 24 102
e 24 109
e 24 111
e 24 112
e 24 115
e 24 116
e 24 129
e 24 130
e 24 137
e 24 138
e 24 151
e 24 152
e 24 153
e 24 155
e 24 158
e 24 160
e 24 167
e 24 169
e 24 176
e 24 183
e 24 186
e 24 191
e 24 195
e 24 197
e 24 198
e 24 200
e 24 202
e 24 206
e 24 217
e 24 229
e 24 233
e 24 237
e 25 27
e 25 28
e 25 29
e 25 31
e 25 32
e 25 34
e 25 35
e 25 36
e 25 37
e 25 39
e 25 40
e 25 43
e 25 45
e 25 46
e 25 50
e 25 51
e 25 52
e 25 55
e 25 56
e 25 57
e 25 63
e 25 64
e 25 66
e 25 67
e 25 68
e 25 69
e 25 70
e 25 71
e 25 72
e 25 73
e 25 77
e 25 78
e 25 80
e 25 86
e 25 87
e 25 89
e 25 91
e 25 93
e 25 96
e 25 97
e 25 99
e 25 100
e 25 101
e 25 102
e 25 106
e 25 107
e 25 117
e 25 132
e 25 133
e 25 135
e 25 141
e 25 161
e 25 162
e 25 164
e 25 166
e 25 172
e 25 173
e 25 179
e 25 181
e 25 191
e 25 200
e 25 202
e 25 203
e 25 206
e 25 209
e 25 214
e 25 217
e 25 224
e 25 228
e 25 230
e 25 233
e 25 235
e 25 245
e 26 28
e 26 29
e 26 31
e 26 32
e 26 33
e 26 34
e 26 36
e 26 37
e 26 40
e 26 41
e 26 42
e 26 43
e 26 45
e 26 47
e 26 55
e 26 61
e 26 65
e 26 66
e 26 74
e 26 77
e 26 96
e 26 100
e 26 112
e 26 113
e 26 116
e 26 118
e 26 119
e 26 120
e 26 126
e 26 129
e 26 132
e 26 134
e 26 135
e 26 136
e 26 137
e 26 146
e 26 148
e 26 157
e 26 159
e 26 161
e 26 165
e 26 170
e 26 178
e 26 181
e 26 182
e 26 187
e 26 188
e 26 192
e 26 199
e 26 200
e 26 204
e 26 205
e 26 216
e 26 220
e 26 221
e 26 225
e 26 239
e 26 244
e 27 30
e 27 31
e 27 34
e 27 35
e 27 37
e 27 38
e 27 39
e 27 40
e 27 41
e 27 44
e 27 45
e 27 46
e 27 48
e 27 49
e 27 50
e 27 51
e 27 52
e 27 53
e 27 54
e 27 58
e 27 61
e 27 63
e 27 65
e 27 69
e 27 70
e 27 71
e 27 72
e 27 74
e 27 76
e 27 81
e 27 82
e 27 83
e 27 85
e 27 120
e 27 122
e 27 130
e 27 134
e 27 138
e 27 145
e 27 152
e 27 153
e 27 157
e 27 168
e 27 171
e 27 172
e 27 177
e 27 184
e 27 191
e 27 195
e 27 204
e 27 215
e 27 236
e 28 29
e 28 30
e 28 32
e 28 35
e 28 39
e 28 41
e 28 42
e 28 45
e 28 46
e 28 48
e 28 52
e 28 65
e 28 72
e 28 76
e 28 92
e 28 107
e 28 108
e 28 109
e 28 116
e 28 117
e 28 123
e 28 128
e 28 131
e 28 142
e 28 144
e 28 145
e 28 147
e 28 153
e 28 173
e 28 180
e 28 185
e 28 200
e 28 210
e 28 230
e 28 234
e 29 32
e 29 33
e 29 34
e 29 36
e 29 37
e 29 38
e 29 41
e 29 42
e 29 44
e 29 45
e 29 47
e 29 49
e 29 51
e 29 53
e 29 54
e 29 56
e 29 57
e 29 62
e 29 63
e 29 64
e 29 73
e 29 74
e 29 77
e 29 79
e 29 80
e 29 87
e 29 88
e 29 92
e 29 93
e 29 96
e 29 99
e 29 102
e 29 115
e 29 118
e 29 119
e 29 120
e 29 125
e 29 145
e 29 151
e 29 166
e 29 181
e 29 186
e 29 212
e 29 216
e 29 227
e 29 229
e 29 239
e 29 243
e 30 32
e 30 34
e 30 35
e 30 36
e 30 37
e 30 40
e 30 46
e 30 47
e 30 50
e 30 52
e 30 56
e 30 59
e 30 62
e 30 68
e 30 76
e 30 77
e 30 78
e 30 79
e 30 81
e 30 83
e 30 84
e 30 92
e 30 93
e 30 96
e 30 97
e 30 111
e 30 115
e 30 120
e 30 123
e 30 126
e 30 137
e 30 145
e 30 148
e 30 152
e 30 163
e 30 167
e 30 168
e 30 171
e 30 172
e 30 175
e 30 176
e 30 177
e 30 178
e 30 184
e 30 189
e 30 193
e 30 198
e 30 207
e 30 208
e 30 216
e 30 232
e 30 236
e 30 237
e 30 240
e 30 245
e 31 33
e 31 36
e 31 39
e 31 41
e 31 42
e 31 43
e 31 46
e 31 49
e 31 50
e 31 53
e 31 54
e 31 56
e 31 60
e 31 63
e 31 66
e 31 67
e 31 69
e 31 73
e 31 76
e 31 77
e 31 78
e 31 79
e 31 81
e 31 84
e 31 87
e 31 96
e 31 103
e 31 107
e 31 115
e 31 119
e 31 123
e 31 124
e 31 136
e 31 139
e 31 140
e 31 142
e 31 146
e 31 166
e 31 167
e 31 175
e 31 180
e 31 184
e 31 189
e 31 192
e 31 194
e 31 196
e 31 207
e 31 212
e 31 220
e 31 223
e 31 224
e 31 232
e 31 234
e 32 33
e 32 34
e 32 35
e 32 36
e 32 38
e 32 39
e 32 42
e 32 44
e 32 46
e 32 49
e 32 52
e 32 60
e 32 62
e 32 63
e 32 64
e 32 65
e 32 67
e 32 70
e 32 78
e 32 81
e 32 85
e 32 91
e 32 103
e 32 108
e 32 111
e 32 112
e 32 114
e 32 123
e 32 129
e 32 132
e 32 135
e 32 140
e 32 145
e 32 152
e 32 156
e 32 164
e 32 170
e 32 178
e 32 185
e 32 195
e 32 198
e 32 223
e 33 43
e 33 44
e 33 45
e 33 47
e 33 48
e 33 51
e 33 54
e 33 56
e 33 58
e 33 59
e 33 60
e 33 63
e 33 64
e 33 67
e 33 70
e 33 72
e 33 73
e 33 81
e 33 89
e 33 101
e 33 103
e 33 105
e 33 112
e 33 116
e 33 119
e 33 129
e 33 154
e 33 158
e 33 166
e 33 174
e 33 179
e 33 189
e 33 204
e 33 213
e 33 219
e 33 222
e 33 225
e 34 35
e 34 36
e 34 38
e 34 41
e 34 52
e 34 57
e 34 58
e 34 60
e 34 64
e 34 66
e 34 67
e 34 75
e 34 88
e 34 94
e 34 95
e 34 98
e 34 102
e 34 103
e 34 106
e 34 115
e 34 117
e 34 119
e 34 122
e 34 129
e 34 142
e 34 151
e 34 175
e 34 186
e 34 189
e 34 193
e 34 220
e 34 229
e 34 241
e 35 38
e 35 40
e 35 42
e 35 43
e 35 46
e 35 48
e 35 53
e 35 55
e 35 56
e 35 58
e 35 63
e 35 65
e 35 71
e 35 80
e 35 81
e 35 89
e 35 91
e 35 100
e 35 117
e 35 125
e 35 128
e 35 136
e 35 145
e 35 147
e 35 152
e 35 156
e 35 187
e 35 191
e 35 193
e 35 196
e 35 218
e 35 222
e 35 226
e 35 229
e 35 241
e 36 37
e 36 41
e 36 45
e 36 50
e 36 52
e 36 54
e 36 55
e 36 58
e 36 59
e 36 64
e 36 66
e 36 69
e 36 95
e 36 98
e 36 99
e 36 104
e 36 110
e 36 111
e 36 112
e 36 118
e 36 120
e 36 122
e 36 138
e 36 158
e 36 159
e 36 174
e 36 188
e 36 198
e 36 203
e 36 209
e 36 223
e 36 230
e 36 232
e 36 233
e 37 48
e 37 50
e 37 51
e 37 57
e 37 58
e 37 60
e 37 62
e 37 66
e 37 68
e 37 75
e 37 78
e 37 85
e 37 94
e 37 97
e 37 105
e 37 115
e 37 121
e 37 125
e 37 127
e 37 135
e 37 140
e 37 141
e 37 155
e 37 156
e 37 157
e 37 159
e 37 160
e 37 162
e 37 164
e 37 165
e 37 166
e 37 171
e 37 202
e 37 205
e 37 211
e 37 214
e 37 215
e 37 216
e 37 217
e 37 228
e 37 231
e 37 240
e 38 39
e 38 43
e 38 45
e 38 46
e 38 58
e 38 71
e 38 76
e 38 81
e 38 109
e 38 110
e 38 112
e 38 117
e 38 122
e 38 126
e 38 129
e 38 131
e 38 134
e 38 141
e 38 151
e 38 164
e 38 169
e 38 170
e 38 188
e 38 198
e 38 199
e 38 209
e 38 215
e 38 231
e 38 242
e 38 244
e 38 246
e 38 247
e 39 40
e 39 41
e 39 42
e 39 47
e 39 48
e 39 56
e 39 62
e 39 63
e 39 65
e 39 67
e 39 72
e 39 74
e 39 84
e 39 89
e 39 99
e 39 102
e 39 105
e 39 106
e 39 117
e 39 122
e 39 126
e 39 132
e 39 136
e 39 145
e 39 162
e 39 180
e 39 184
e 39 189
e 39 190
e 39 191
e 39 201
e 39 208
e 39 214
e 39 215
e 39 228
e 39 233
e 40 42
e 40 43
e 40 53
e 40 55
e 40 56
e 40 58
e 40 69
e 40 75
e 40 76
e 40 78
e 40 82
e 40 84
e 40 85
e 40 86
e 40 90
e 40 103
e 40 121
e 40 142
e 40 154
e 40 163
e 40 170
e 40 179
e 40 183
e 40 184
e 40 191
e 40 211
e 40 220
e 40 242
e 41 42
e 41 43
e 41 49
e 41 54
e 41 55
e 41 56
e 41 59
e 41 64
e 41 66
e 41 78
e 41 79
e 41 86
e 41 88
e 41 92
e 41 94
e 41 96
e 41 105
e 41 106
e 41 107
e 41 111
e 41 118
e 41 120
e 41 121
e 41 128
e 41 133
e 41 136
e 41 142
e 41 156
e 41 161
e 41 163
e 41 165
e 41 166
e 41 167
e 41 189
e 41 190
e 41 192
e 41 203
e 41 210
e 41 228
e 41 231
e 41 232
e 41 237
e 41 238
e 42 48
e 42 49
e 42 50
e 42 52
e 42 55
e 42 56
e 42 72
e 42 76
e 42 83
e 42 95
e 42 119
e 42 124
e 42 148
e 42 155
e 42 166
e 42 176
e 42 178
e 42 183
e 42 188
e 42 193
e 42 200
e 42 210
e 42 211
e 42 215
e 42 225
e 43 44
e 43 46
e 43 47
e 43 48
e 43 53
e 43 54
e 43 57
e 43 58
e 43 60
e 43 62
e 43 65
e 43 68
e 43 73
e 43 76
e 43 77
e 43 80
e 43 82
e 43 83
e 43 85
e 43 87
e 43 88
e 43 94
e 43 97
e 43 98
e 43 100
e 43 101
e 43 103
e 43 108
e 43 109
e 43 110
e 43 111
e 43 115
e 43 116
e 43 117
e 43 118
e 43 129
e 43 130
e 43 135
e 43 137
e 43 138
e 43 139
e 43 140
e 43 143
e 43 150
e 43 155
e 43 157
e 43 183
e 43 186
e 43 213
e 43 228
e 43 239
e 43 241
e 43 244
e 44 45
e 44 51
e 44 66
e 44 75
e 44 81
e 44 98
e 44 99
e 44 104
e 44 105
e 44 106
e 44 108
e 44 111
e 44 113
e 44 132
e 44 149
e 44 151
e 44 154
e 44 158
e 44 172
e 44 173
e 44 195
e 44 199
e 44 205
e 44 214
e 44 216
e 44 229
e 44 233
e 44 236
e 45 49
e 45 50
e 45 51
e 45 57
e 45 59
e 45 61
e 45 67
e 45 79
e 45 82
e 45 83
e 45 103
e 45 106
e 45 108
e 45 119
e 45 123
e 45 130
e 45 133
e 45 136
e 45 142
e 45 158
e 45 163
e 45 172
e 45 175
e 45 177
e 45 181
e 45 185
e 45 194
e 45 207
e 45 218
e 45 220
e 45 223
e 45 231
e 45 236
e 45 241
e 45 247
e 46 54
e 46 68
e 46 70
e 46 72
e 46 81
e 46 85
e 46 88
e 46 100
e 46 101
e 46 108
e 46 112
e 46 119
e 46 120
e 46 141
e 46 144
e 46 146
e 46 168
e 46 184
e 46 202
e 46 206
e 46 208
e 46 232
e 46 239
e 47 51
e 47 55
e 47 61
e 47 65
e 47 70
e 47 73
e 47 86
e 47 87
e 47 89
e 47 90
e 47 92
e 47 96
e 47 100
e 47 104
e 47 105
e 47 106
e 47 111
e 47 116
e 47 122
e 47 125
e 47 128
e 47 142
e 47 156
e 47 157
e 47 158
e 47 161
e 47 164
e 47 169
e 47 171
e 47 172
e 47 173
e 47 183
e 47 196
e 47 204
e 47 209
e 47 210
e 47 218
e 47 225
e 48 51
e 48 65
e 48 69
e 48 70
e 48 78
e 48 83
e 48 85
e 48 86
e 48 101
e 48 103
e 48 114
e 48 116
e 48 120
e 48 127
e 48 131
e 48 132
e 48 133
e 48 138
e 48 139
e 48 154
e 48 155
e 48 156
e 48 183
e 48 202
e 48 206
e 48 208
e 48 218
e 48 223
e 48 232
e 48 239
e 49 50
e 49 55
e 49 63
e 49 64
e 49 68
e 49 74
e 49 82
e 49 87
e 49 92
e 49 100
e 49 116
e 49 163
e 49 167
e 49 174
e 49 186
e 49 226
e 50 57
e 50 60
e 50 65
e 50 73
e 50 74
e 50 75
e 50 84
e 50 93
e 50 94
e 50 98
e 50 101
e 50 104
e 50 109
e 50 113
e 50 114
e 50 131
e 50 134
e 50 139
e 50 149
e 50 150
e 50 160
e 50 169
e 50 175
e 50 176
e 50 182
e 50 199
e 50 200
e 50 203
e 50 207
e 50 224
e 50 237
e 50 246
e 51 61
e 51 62
e 51 74
e 51 79
e 51 92
e 51 114
e 51 116
e 51 118
e 51 127
e 51 139
e 51 154
e 51 158
e 51 190
e 51 192
e 51 211
e 51 213
e 51 230
e 51 239
e 52 59
e 52 62
e 52 66
e 52 67
e 52 80
e 52 81
e 52 82
e 52 92
e 52 93
e 52 104
e 52 107
e 52 110
e 52 114
e 52 123
e 52 124
e 52 134
e 52 135
e 52 151
e 52 159
e 52 166
e 52 175
e 52 188
e 52 194
e 52 196
e 52 221
e 52 231
e 52 232
e 52 233
e 53 57
e 53 61
e 53 64
e 53 69
e 53 101
e 53 120
e 53 122
e 53 137
e 53 150
e 53 151
e 53 156
e 53 165
e 53 166
e 53 192
e 53 212
e 53 221
e 54 55
e 54 61
e 54 101
e 54 141
e 54 143
e 54 146
e 54 161
e 54 168
e 54 179
e 54 184
e 54 197
e 54 202
e 54 207
e 54 209
e 54 211
e 54 224
e 54 239
e 55 63
e 55 71
e 55 73
e 55 75
e 55 80
e 55 82
e 55 95
e 55 105
e 55 115
e 55 116
e 55 147
e 55 167
e 55 169
e 55 175
e 55 182
e 55 196
e 55 197
e 55 218
e 55 231
e 55 237
e 55 241
e 56 60
e 56 66
e 56 77
e 56 78
e 56 89
e 56 100
e 56 115
e 56 130
e 56 131
e 56 149
e 56 170
e 56 185
e 56 221
e 57 59
e 57 61
e 57 73
e 57 74
e 57 77
e 57 78
e 57 79
e 57 80
e 57 82
e 57 86
e 57 90
e 57 93
e 57 97
e 57 101
e 57 102
e 57 103
e 57 110
e 57 114
e 57 118
e 57 121
e 57 125
e 57 128
e 57 148
e 57 158
e 57 160
e 57 167
e 57 168
e 57 169
e 57 172
e 57 179
e 57 182
e 57 200
e 57 204
e 57 207
e 57 209
e 57 215
e 57 232
e 57 236
e 57 240
e 58 70
e 58 84
e 58 88
e 58 91
e 58 94
e 58 97
e 58 98
e 58 113
e 58 114
e 58 123
e 58 124
e 58 126
e 58 132
e 58 135
e 58 137
e 58 140
e 58 164
e 58 173
e 58 175
e 58 177
e 58 184
e 58 189
e 58 194
e 58 197
e 58 202
e 58 203
e 58 219
e 58 221
e 58 223
e 58 224
e 58 227
e 58 240
e 58 243
e 58 244
e 59 60
e 59 68
e 59 69
e 59 74
e 59 87
e 59 95
e 59 105
e 59 121
e 59 138
e 59 140
e 59 159
e 59 173
e 59 178
e 59 190
e 59 193
e 59 196
e 59 203
e 59 230
e 59 246
e 60 61
e 60 76
e 60 77
e 60 84
e 60 85
e 60 90
e 60 98
e 60 107
e 60 110
e 60 126
e 60 127
e 60 128
e 60 143
e 60 164
e 60 179
e 60 191
e 60 192
e 60 203
e 60 215
e 60 222
e 61 70
e 61 75
e 61 90
e 61 106
e 61 117
e 61 134
e 61 147
e 61 152
e 61 171
e 61 203
e 61 205
e 61 211
e 61 220
e 62 64
e 62 67
e 62 70
e 62 75
e 62 79
e 62 86
e 62 88
e 62 95
e 62 99
e 62 106
e 62 108
e 62 119
e 62 128
e 62 145
e 62 150
e 62 152
e 62 187
e 62 192
e 62 194
e 62 201
e 62 209
e 62 211
e 62 217
e 62 229
e 62 244
e 63 71
e 63 72
e 63 77
e 63 81
e 63 87
e 63 94
e 63 95
e 63 100
e 63 115
e 63 117
e 63 126
e 63 145
e 63 149
e 63 156
e 63 160
e 63 162
e 63 171
e 63 175
e 63 200
e 63 207
e 63 213
e 63 228
e 63 230
e 63 231
e 63 237
e 63 242
e 64 81
e 64 88
e 64 107
e 64 114
e 64 138
e 64 165
e 64 178
e 64 181
e 64 192
e 64 195
e 64 201
e 64 204
e 64 221
e 64 226
e 65 70
e 65 77
e 65 79
e 65 81
e 65 94
e 65 123
e 65 124
e 65 125
e 65 126
e 65 128
e 65 134
e 65 165
e 65 173
e 65 194
e 65 215
e 65 234
e 65 247
e 66 68
e 66 82
e 66 91
e 66 94
e 66 98
e 66 109
e 66 138
e 66 152
e 66 159
e 66 183
e 66 187
e 66 190
e 66 214
e 66 233
e 66 235
e 66 239
e 67 68
e 67 71
e 67 74
e 67 83
e 67 91
e 67 92
e 67 97
e 67 107
e 67 144
e 67 183
e 67 186
e 67 196
e 67 234
e 67 238
e 67 246
e 68 69
e 68 73
e 68 79
e 68 84
e 68 89
e 68 112
e 68 130
e 68 133
e 68 137
e 68 142
e 68 149
e 68 155
e 68 157
e 68 159
e 68 169
e 68 172
e 68 187
e 68 208
e 68 238
e 68 243
e 69 71
e 69 72
e 69 75
e 69 82
e 69 95
e 69 101
e 69 127
e 69 130
e 69 137
e 69 148
e 69 155
e 69 156
e 69 159
e 69 165
e 69 175
e 69 180
e 69 181
e 69 189
e 69 214
e 69 215
e 69 227
e 69 229
e 69 235
e 70 71
e 70 76
e 70 106
e 70 130
e 70 177
e 70 186
e 70 200
e 70 206
e 70 209
e 70 227
e 70 240
e 70 242
e 71 106
e 71 111
e 71 122
e 71 127
e 71 153
e 71 176
e 71 209
e 71 212
e 71 231
e 71 245
e 72 75
e 72 89
e 72 90
e 72 91
e 72 95
e 72 97
e 72 111
e 72 115
e 72 116
e 72 122
e 72 139
e 72 150
e 72 159
e 72 162
e 72 168
e 72 184
e 72 188
e 72 222
e 72 246
e 72 247
e 73 91
e 73 93
e 73 113
e 73 127
e 73 129
e 73 145
e 73 151
e 73 154
e 73 156
e 73 191
e 73 204
e 73 222
e 74 88
e 74 91
e 74 99
e 74 100
e 74 112
e 74 150
e 74 160
e 74 162
e 74 171
e 74 182
e 74 188
e 74 195
e 74 202
e 74 216
e 75 77
e 75 84
e 75 85
e 75 96
e 75 97
e 75 99
e 75 125
e 75 131
e 75 141
e 75 150
e 75 174
e 75 176
e 75 178
e 75 186
e 75 187
e 75 213
e 75 223
e 75 247
e 76 83
e 76 90
e 76 97
e 76 99
e 76 109
e 76 114
e 76 132
e 76 148
e 76 175
e 76 179
e 76 191
e 76 194
e 76 196
e 76 197
e 76 208
e 76 217
e 76 219
e 76 234
e 77 79
e 77 87
e 77 94
e 77 100
e 77 121
e 77 126
e 77 143
e 77 149
e 77 155
e 77 164
e 77 167
e 77 175
e 77 193
e 77 194
e 77 227
e 78 85
e 78 98
e 78 107
e 78 156
e 78 158
e 78 167
e 78 184
e 78 186
e 78 198
e 78 199
e 78 207
e 78 209
e 78 214
e 79 86
e 79 92
e 79 108
e 79 112
e 79 115
e 79 118
e 79 131
e 79 147
e 79 157
e 79 171
e 79 217
e 80 83
e 80 89
e 80 101
e 80 105
e 80 106
e 80 107
e 80 108
e 80 120
e 80 126
e 80 141
e 80 144
e 80 146
e 80 163
e 80 195
e 80 198
e 80 212
e 80 222
e 80 224
e 80 241
e 81 110
e 81 115
e 81 120
e 81 122
e 81 124
e 81 132
e 81 148
e 81 153
e 81 155
e 81 172
e 81 175
e 81 176
e 81 189
e 81 197
e 81 200
e 81 225
e 81 240
e 81 244
e 82 83
e 82 90
e 82 124
e 82 126
e 82 158
e 82 187
e 82 208
e 82 215
e 82 243
e 83 96
e 83 108
e 83 123
e 83 130
e 83 133
e 83 136
e 83 146
e 83 148
e 83 168
e 83 188
e 84 86
e 84 89
e 84 96
e 84 115
e 84 121
e 84 125
e 84 131
e 84 161
e 84 171
e 84 181
e 84 199
e 84 219
e 84 232
e 85 90
e 85 104
e 85 109
e 85 112
e 85 114
e 85 128
e 85 132
e 85 139
e 85 161
e 85 164
e 85 177
e 85 190
e 85 195
e 85 231
e 85 238
e 85 247
e 86 87
e 86 90
e 86 95
e 86 97
e 86 99
e 86 107
e 86 126
e 86 139
e 86 145
e 86 159
e 86 169
e 86 193
e 86 197
e 86 205
e 86 220
e 86 221
e 87 98
e 87 103
e 87 121
e 87 127
e 87 135
e 87 138
e 87 144
e 87 178
e 87 187
e 87 192
e 87 221
e 87 228
e 87 233
e 88 99
e 88 101
e 88 105
e 88 110
e 88 118
e 88 123
e 88 126
e 88 131
e 88 138
e 88 143
e 88 145
e 88 147
e 88 156
e 88 166
e 88 176
e 88 186
e 88 197
e 88 232
e 88 246
e 89 90
e 89 96
e 89 159
e 89 161
e 89 185
e 89 221
e 89 226
e 89 236
e 89 238
e 89 240
e 90 91
e 90 102
e 90 144
e 90 157
e 90 184
e 90 194
e 90 237
e 91 96
e 91 108
e 91 118
e 91 127
e 91 133
e 91 135
e 91 136
e 91 144
e 91 180
e 91 182
e 91 190
e 91 197
e 91 215
e 92 102
e 92 121
e 92 135
e 92 140
e 92 167
e 92 183
e 92 195
e 92 211
e 92 226
e 92 242
e 93 94
e 93 110
e 93 124
e 93 136
e 93 137
e 93 141
e 93 158
e 93 161
e 93 201
e 93 211
e 93 214
e 93 237
e 94 109
e 94 113
e 94 133
e 94 134
e 94 135
e 94 137
e 94 170
e 94 175
e 94 192
e 94 195
e 94 200
e 94 213
e 94 224
e 94 226
e 94 228
e 94 230
e 94 242
e 95 110
e 95 139
e 95 140
e 95 143
e 95 144
e 95 155
e 95 157
e 95 160
e 95 168
e 95 175
e 95 218
e 95 237
e 96 141
e 96 151
e 96 180
e 96 189
e 96 194
e 96 208
e 97 102
e 97 111
e 97 117
e 97 119
e 97 130
e 97 132
e 97 139
e 97 149
e 97 151
e 97 153
e 97 158
e 97 160
e 97 166
e 97 168
e 97 180
e 97 184
e 97 188
e 97 189
e 97 197
e 97 198
e 97 199
e 97 217
e 97 220
e 97 225
e 97 228
e 97 233
e 97 238
e 97 241
e 97 242
e 98 116
e 98 123
e 98 141
e 98 144
e 98 148
e 98 161
e 98 172
e 98 204
e 98 223
e 98 235
e 98 241
e 98 243
e 99 102
e 99 104
e 99 124
e 99 140
e 99 170
e 99 190
e 99 195
e 99 204
e 99 212
e 99 223
e 99 239
e 100 117
e 100 132
e 100 139
e 100 154
e 100 155
e 100 164
e 100 165
e 100 174
e 100 178
e 100 185
e 100 201
e 100 210
e 100 227
e 100 228
e 100 245
e 101 103
e 101 108
e 101 113
e 101 119
e 101 122
e 101 140
e 101 149
e 101 199
e 101 206
e 101 234
e 101 245
e 102 104
e 102 138
e 102 150
e 102 159
e 102 176
e 102 241
e 103 117
e 103 129
e 103 130
e 103 136
e 103 154
e 103 160
e 103 201
e 103 204
e 103 205
e 104 120
e 104 127
e 104 138
e 104 160
e 104 192
e 104 223
e 104 227
e 104 242
e 105 116
e 105 119
e 105 125
e 105 133
e 105 180
e 105 210
e 105 230
e 105 232
e 105 247
e 106 128
e 106 131
e 106 133
e 106 141
e 106 149
e 106 211
e 106 213
e 106 215
e 107 113
e 107 115
e 107 128
e 107 134
e 107 158
e 107 162
e 107 171
e 107 186
e 107 207
e 107 218
e 107 229
e 107 242
e 108 113
e 108 131
e 108 135
e 108 146
e 108 148
e 108 161
e 108 162
e 108 165
e 108 172
e 108 190
e 108 194
e 108 205
e 108 227
e 108 231
e 108 235
e 108 237
e 108 243
e 109 142
e 109 143
e 109 161
e 109 198
e 109 208
e 109 218
e 109 244
e 110 125
e 110 139
e 110 144
e 110 168
e 110 173
e 110 183
e 110 241
e 111 129
e 111 130
e 111 133
e 111 148
e 111 151
e 111 182
e 111 210
e 111 214
e 111 218
e 111 230
e 112 133
e 112 136
e 112 172
e 112 180
e 112 185
e 113 114
e 113 118
e 113 120
e 113 123
e 113 143
e 113 147
e 113 174
e 113 182
e 113 213
e 113 228
e 113 229
e 113 230
e 113 242
e 114 117
e 114 120
e 114 124
e 114 125
e 114 135
e 114 140
e 114 141
e 114 144
e 114 150
e 114 151
e 114 161
e 114 179
e 114 197
e 114 204
e 114 210
e 114 233
e 114 241
e 114 247
e 115 125
e 115 131
e 115 146
e 115 148
e 115 150
e 115 153
e 115 155
e 115 180
e 115 181
e 115 182
e 115 215
e 115 241
e 115 243
e 116 139
e 116 143
e 116 144
e 116 159
e 116 162
e 116 170
e 116 173
e 116 189
e 116 190
e 116 206
e 116 209
e 116 240
e 117 121
e 117 123
e 117 125
e 117 143
e 117 147
e 117 171
e 117 173
e 117 190
e 117 192
e 117 197
e 117 230
e 117 234
e 117 241
e 118 134
e 118 152
e 118 155
e 118 232
e 118 236
e 119 125
e 119 128
e 119 147
e 119 158
e 119 169
e 119 182
e 119 196
e 119 201
e 119 244
e 120 140
e 120 174
e 120 184
e 120 201
e 120 208
e 121 154
e 121 161
e 121 171
e 121 173
e 121 181
e 121 193
e 121 199
e 121 205
e 121 209
e 121 211
e 121 226
e 121 228
e 122 124
e 122 148
e 122 169
e 122 177
e 122 180
e 122 182
e 122 217
e 122 235
e 122 240
e 123 137
e 123 154
e 123 171
e 123 180
e 123 202
e 123 214
e 123 216
e 124 126
e 124 129
e 124 152
e 124 179
e 124 180
e 124 191
e 124 203
e 124 218
e 124 223
e 124 226
e 125 127
e 125 140
e 125 149
e 125 170
e 125 195
e 125 196
e 125 198
e 125 224
e 125 226
e 126 139
e 126 155
e 126 194
e 126 233
e 126 238
e 126 243
e 127 132
e 127 134
e 127 137
e 127 150
e 127 190
e 128 133
e 128 134
e 128 142
e 128 157
e 128 163
e 128 173
e 128 216
e 128 223
e 128 234
e 128 241
e 129 155
e 129 174
e 129 211
e 129 219
e 130 143
e 130 157
e 130 163
e 130 182
e 130 183
e 130 210
e 130 214
e 130 234
e 130 235
e 130 245
e 130 247
e 131 136
e 131 146
e 131 157
e 131 181
e 131 184
e 131 227
e 132 155
e 132 183
e 133 147
e 133 206
e 133 239
e 134 142
e 134 154
e 134 164
e 134 166
e 134 181
e 134 212
e 134 216
e 134 219
e 135 153
e 135 223
e 135 232
e 135 247
e 136 152
e 136 153
e 136 160
e 136 163
e 136 191
e 136 193
e 136 199
e 136 205
e 136 211
e 136 214
e 136 245
e 137 197
e 137 206
e 137 237
e 138 141
e 138 146
e 138 171
e 138 179
e 138 201
e 138 204
e 138 207
e 138 245
e 139 144
e 139 170
e 140 183
e 140 206
e 140 246
e 141 167
e 141 177
e 141 192
e 141 193
e 141 213
e 142 143
e 142 146
e 142 169
e 142 194
e 143 172
e 143 176
e 143 185
e 143 189
e 143 236
e 143 244
e 144 152
e 144 164
e 144 168
e 144 225
e 145 146
e 145 193
e 145 205
e 145 207
e 145 216
e 145 224
e 145 235
e 146 147
e 146 203
e 146 219
e 147 165
e 147 186
e 147 193
e 147 198
e 147 202
e 147 205
e 148 159
e 148 227
e 149 172
e 149 176
e 149 179
e 149 202
e 149 203
e 149 231
e 150 160
e 150 162
e 150 166
e 150 170
e 150 172
e 150 175
e 150 188
e 150 194
e 150 211
e 150 224
e 150 237
e 150 243
e 151 169
e 151 179
e 151 191
e 151 214
e 152 167
e 152 186
e 152 187
e 152 207
e 152 236
e 152 244
e 152 245
e 153 187
e 153 190
e 153 203
e 153 211
e 153 225
e 153 234
e 153 236
e 154 164
e 154 178
e 154 197
e 154 199
e 154 200
e 154 214
e 154 217
e 154 221
e 154 222
e 155 167
e 155 174
e 155 212
e 156 212
e 156 237
e 157 165
e 157 169
e 157 200
e 158 165
e 158 173
e 158 198
e 158 213
e 158 227
e 158 229
e 159 165
e 159 171
e 159 187
e 159 236
e 159 246
e 160 163
e 160 177
e 160 218
e 161 168
e 161 187
e 161 205
e 161 209
e 161 212
e 161 243
e 162 178
e 162 181
e 162 193
e 163 185
e 163 190
e 164 182
e 164 204
e 164 212
e 164 225
e 164 240
e 165 174
e 165 177
e 165 178
e 165 180
e 165 207
e 165 216
e 165 225
e 165 235
e 165 246
e 166 167
e 166 186
e 166 225
e 166 241
e 167 174
e 167 177
e 167 200
e 167 201
e 167 210
e 167 215
e 167 231
e 167 233
e 168 170
e 168 183
e 168 185
e 168 189
e 168 192
e 168 202
e 168 235
e 170 176
e 170 199
e 170 217
e 170 236
e 171 209
e 171 247
e 172 179
e 172 180
e 172 246
e 173 238
e 174 219
e 174 223
e 174 246
e 175 178
e 175 195
e 175 198
e 176 206
e 177 179
e 177 235
e 178 235
e 179 218
e 180 237
e 180 244
e 181 187
e 181 196
e 181 213
e 182 198
e 182 202
e 182 212
e 182 224
e 182 234
e 183 189
e 183 215
e 183 216
e 184 186
e 184 239
e 186 219
e 186 231
e 187 199
e 187 204
e 187 219
e 187 220
e 187 224
e 188 194
e 188 221
e 188 240
e 188 244
e 190 196
e 190 210
e 191 204
e 191 220
e 191 222
e 191 245
e 192 213
e 192 247
e 193 224
e 193 235
e 194 211
e 194 212
e 194 227
e 194 236
e 194 238
e 195 229
e 195 244
e 197 204
e 197 205
e 197 216
e 197 246
e 198 233
e 199 247
e 200 203
e 200 205
e 200 221
e 200 235
e 200 238
e 201 218
e 202 210
e 202 213
e 202 222
e 202 227
e 203 213
e 203 220
e 203 236
e 204 229
e 204 244
e 205 206
e 205 225
e 205 231
e 205 243
e 207 229
e 207 234
e 207 238
e 208 240
e 210 217
e 210 226
e 210 242
e 211 224
e 212 245
e 213 247
e 214 220
e 214 239
e 214 240
e 215 217
e 215 225
e 216 239
e 217 238
e 217 239
e 218 235
e 218 245
e 221 237
e 223 228
e 224 226
e 224 228
e 224 243
e 228 232
e 229 231
e 231 238
e 231 240
e 233 236
e 237 246
e 237 247
e 244 245
